100
1000
493
489
488
486
482
480
470
467
449
444
443
432
430
425
423
415
414
411
410
407
404
401
398
398
392
389
384
378
377
376
374
374
373
370
369
368
366
366
361
354
346
342
341
338
332
328
328
327
318
317
315
311
311
310
305
302
302
299
298
294
290
285
282
277
274
272
269
268
260
257
256
254
253
252
252
251
241
236
234
231
224
223
222
221
220
219
216
216
213
205
193
190
182
180
179
177
176
172
169
167
